outputs/case_381.model.txt
risk_of_harming_insured_rights = False
financial_or_business_improvement_plan_completed = False
capital_adequacy_ratio = 40
days_after_deadline = 0
unable_to_pay_debts = False
merger_completed = False
capital_increase_completed = False
net_worth_ratio = 1
unable_to_fulfill_contractual_obligations = False
net_worth = -10
improvement_plan_approved = False
improvement_plan_effective = False
financial_or_business_status_significantly_deteriorated = False
improvement_plan_submitted = False
profit_and_loss_accelerated_deterioration = False
supervisory_restrictions = True
supervisory_measures_applicable = False
financial_or_business_deterioration = False
improvement_plan_submitted_and_approved = False
supervisory_consent_payment_exceed_limit = False
capital_level_4_noncompliance = True
penalty = False
improvement_plan_accelerated_deterioration = True
capital_level = 4
supervisory_consent_other_major_financial_matters = False
supervisory_consent_contract_commitment = False
capital_level_4_penalty_period = 0